17	4
8	11	11	9	
0	0	0	0	0	3	2	3	4	
9	0	7	0	0	3	6	8	14	
10	0	0	0	5	3	5	16	17	
5	0	0	5	0	3	12	16	17	
1	0	2	0	0	3	7	10	13	
75	0	0	5	0	3	7	17	17	
125	0	0	0	4	2	9	11	
225	0	0	9	0	3	15	17	17	
125	0	3	0	0	1	17	
250	0	9	0	0	3	17	17	17	
200	0	0	0	5	2	17	17	
175	0	0	4	0	1	17	
2	0	9	0	0	2	17	17	
8	4	0	0	0	1	17	
3	0	0	8	0	1	17	
6	0	0	0	6	2	17	17	
0	0	0	0	0	0	
